language Essence 1.3

letting class be
        function(1 --> 3, 2 --> 1, 3 --> 8, 4 --> 5, 5 --> 5, 6 --> 1, 7 --> 2, 8 --> 9, 9 --> 1, 10 --> 2, 11 --> 7,
                 12 --> 3, 13 --> 5, 14 --> 1, 15 --> 6, 16 --> 9, 17 --> 1, 18 --> 4, 19 --> 2, 20 --> 6, 21 --> 9,
                 22 --> 9, 23 --> 3, 24 --> 5, 25 --> 4)
letting deck_length be 65
letting deck_width be 85
letting length be
        function(1 --> 18, 2 --> 1, 3 --> 1, 4 --> 1, 5 --> 1, 6 --> 1, 7 --> 1, 8 --> 1, 9 --> 2, 10 --> 1, 11 --> 1,
                 12 --> 1, 13 --> 1, 14 --> 1, 15 --> 53, 16 --> 1, 17 --> 1, 18 --> 1, 19 --> 1, 20 --> 1, 21 --> 1,
                 22 --> 1, 23 --> 1, 24 --> 16, 25 --> 1)
letting n_classes be 9
letting n_containers be 25
letting separation be function({7, 8} --> 7, {7, 9} --> 76)
letting width be
        function(1 --> 17, 2 --> 1, 3 --> 6, 4 --> 1, 5 --> 1, 6 --> 1, 7 --> 1, 8 --> 3, 9 --> 15, 10 --> 1, 11 --> 1,
                 12 --> 1, 13 --> 1, 14 --> 1, 15 --> 38, 16 --> 1, 17 --> 1, 18 --> 1, 19 --> 1, 20 --> 1, 21 --> 1,
                 22 --> 1, 23 --> 1, 24 --> 24, 25 --> 1)
